sat
(
(define-fun w1_1_1 () Int (- 1))
(define-fun w1_1_2 () Int (- 8))
(define-fun w1_1_3 () Int 1)
(define-fun w1_1_4 () Int 1)
(define-fun w1_1_5 () Int 0)
(define-fun w1_1_6 () Int 0)
(define-fun w1_1_7 () Int 2)
(define-fun w1_1_8 () Int 1)
(define-fun w1_1_9 () Int 0)
(define-fun w1_1_10 () Int 0)
(define-fun w1_1_11 () Int 5)
(define-fun w1_1_12 () Int 0)
(define-fun w1_1_13 () Int (- 1))
(define-fun w1_1_14 () Int 0)
(define-fun w1_1_15 () Int 0)
(define-fun w1_1_16 () Int 2)
(define-fun w1_1_17 () Int (- 2))
(define-fun w1_1_18 () Int 0)
(define-fun w1_1_19 () Int (- 2))
(define-fun w1_1_20 () Int 0)
(define-fun w1_1_21 () Int 1)
(define-fun w1_1_22 () Int (- 1))
(define-fun w1_1_23 () Int 1)
(define-fun w1_1_24 () Int 0)
(define-fun w1_1_25 () Int (- 1))
(define-fun w1_1_26 () Int 0)
(define-fun w1_1_27 () Int 0)
(define-fun w1_1_28 () Int 2)
(define-fun w1_1_29 () Int 0)
(define-fun w1_1_30 () Int (- 2))
(define-fun w1_1_31 () Int 1)
(define-fun w1_1_32 () Int 0)
(define-fun w1_1_33 () Int 0)
(define-fun w1_1_34 () Int 0)
(define-fun w1_1_35 () Int 1)
(define-fun w1_1_36 () Int 1)
(define-fun w1_1_37 () Int (- 1))
(define-fun w1_1_38 () Int (- 2))
(define-fun w1_1_39 () Int 11)
(define-fun b1_1 () Int 0)
(define-fun w1_2_1 () Int 0)
(define-fun w1_2_2 () Int 0)
(define-fun w1_2_3 () Int 0)
(define-fun w1_2_4 () Int 0)
(define-fun w1_2_5 () Int 0)
(define-fun w1_2_6 () Int 0)
(define-fun w1_2_7 () Int 0)
(define-fun w1_2_8 () Int 0)
(define-fun w1_2_9 () Int 0)
(define-fun w1_2_10 () Int 0)
(define-fun w1_2_11 () Int 0)
(define-fun w1_2_12 () Int 0)
(define-fun w1_2_13 () Int 0)
(define-fun w1_2_14 () Int 0)
(define-fun w1_2_15 () Int 0)
(define-fun w1_2_16 () Int 0)
(define-fun w1_2_17 () Int 0)
(define-fun w1_2_18 () Int 0)
(define-fun w1_2_19 () Int 0)
(define-fun w1_2_20 () Int 0)
(define-fun w1_2_21 () Int 0)
(define-fun w1_2_22 () Int 0)
(define-fun w1_2_23 () Int 0)
(define-fun w1_2_24 () Int 0)
(define-fun w1_2_25 () Int 0)
(define-fun w1_2_26 () Int 0)
(define-fun w1_2_27 () Int 0)
(define-fun w1_2_28 () Int 0)
(define-fun w1_2_29 () Int 0)
(define-fun w1_2_30 () Int 0)
(define-fun w1_2_31 () Int 0)
(define-fun w1_2_32 () Int 0)
(define-fun w1_2_33 () Int 0)
(define-fun w1_2_34 () Int 0)
(define-fun w1_2_35 () Int 0)
(define-fun w1_2_36 () Int (- 2))
(define-fun w1_2_37 () Int 0)
(define-fun w1_2_38 () Int 0)
(define-fun w1_2_39 () Int 0)
(define-fun b1_2 () Int 0)
(define-fun w1_3_1 () Int 0)
(define-fun w1_3_2 () Int 0)
(define-fun w1_3_3 () Int 0)
(define-fun w1_3_4 () Int 0)
(define-fun w1_3_5 () Int 0)
(define-fun w1_3_6 () Int 0)
(define-fun w1_3_7 () Int 0)
(define-fun w1_3_8 () Int 0)
(define-fun w1_3_9 () Int 0)
(define-fun w1_3_10 () Int 0)
(define-fun w1_3_11 () Int 0)
(define-fun w1_3_12 () Int 0)
(define-fun w1_3_13 () Int 0)
(define-fun w1_3_14 () Int 0)
(define-fun w1_3_15 () Int 0)
(define-fun w1_3_16 () Int 0)
(define-fun w1_3_17 () Int 0)
(define-fun w1_3_18 () Int 0)
(define-fun w1_3_19 () Int 0)
(define-fun w1_3_20 () Int 0)
(define-fun w1_3_21 () Int 0)
(define-fun w1_3_22 () Int 0)
(define-fun w1_3_23 () Int 0)
(define-fun w1_3_24 () Int 0)
(define-fun w1_3_25 () Int 0)
(define-fun w1_3_26 () Int 0)
(define-fun w1_3_27 () Int 0)
(define-fun w1_3_28 () Int 0)
(define-fun w1_3_29 () Int 0)
(define-fun w1_3_30 () Int 0)
(define-fun w1_3_31 () Int 0)
(define-fun w1_3_32 () Int 0)
(define-fun w1_3_33 () Int 0)
(define-fun w1_3_34 () Int 0)
(define-fun w1_3_35 () Int 0)
(define-fun w1_3_36 () Int (- 1))
(define-fun w1_3_37 () Int 0)
(define-fun w1_3_38 () Int 0)
(define-fun w1_3_39 () Int 0)
(define-fun b1_3 () Int 0)
(define-fun w1_4_1 () Int 0)
(define-fun w1_4_2 () Int 0)
(define-fun w1_4_3 () Int 0)
(define-fun w1_4_4 () Int 0)
(define-fun w1_4_5 () Int 0)
(define-fun w1_4_6 () Int 0)
(define-fun w1_4_7 () Int (- 6))
(define-fun w1_4_8 () Int (- 3))
(define-fun w1_4_9 () Int 0)
(define-fun w1_4_10 () Int 0)
(define-fun w1_4_11 () Int 0)
(define-fun w1_4_12 () Int 1)
(define-fun w1_4_13 () Int 9)
(define-fun w1_4_14 () Int 2)
(define-fun w1_4_15 () Int 3)
(define-fun w1_4_16 () Int (- 1))
(define-fun w1_4_17 () Int 13)
(define-fun w1_4_18 () Int 3)
(define-fun w1_4_19 () Int (- 4))
(define-fun w1_4_20 () Int (- 2))
(define-fun w1_4_21 () Int (- 2))
(define-fun w1_4_22 () Int (- 3))
(define-fun w1_4_23 () Int (- 2))
(define-fun w1_4_24 () Int (- 4))
(define-fun w1_4_25 () Int (- 4))
(define-fun w1_4_26 () Int 12)
(define-fun w1_4_27 () Int 0)
(define-fun w1_4_28 () Int (- 6))
(define-fun w1_4_29 () Int (- 6))
(define-fun w1_4_30 () Int 19)
(define-fun w1_4_31 () Int 4)
(define-fun w1_4_32 () Int (- 11))
(define-fun w1_4_33 () Int (- 4))
(define-fun w1_4_34 () Int 3)
(define-fun w1_4_35 () Int 6)
(define-fun w1_4_36 () Int (- 2))
(define-fun w1_4_37 () Int 0)
(define-fun w1_4_38 () Int 0)
(define-fun w1_4_39 () Int (- 13))
(define-fun b1_4 () Int 3)
(define-fun w2_1_1 () Int 1)
(define-fun w2_1_2 () Int (- 2))
(define-fun w2_1_3 () Int (- 1))
(define-fun w2_1_4 () Int 1)
(define-fun b_out () Int (- 6))
)
